c *********************************
c * Circuit generated by BenCGen
c *
c * RippleCarryAdder_61_61_61_InOutT
c *
c * Ports with 1 gate(s): 1
c * Ports with 2 gate(s): 306
c * Total gates: 307
c *********************************
p cnf 429 1042
1 186 0
-1 -186 0
1 -185 0
186 -185 0
-1 -186 185 0
1 62 -188 0
-1 62 188 0
1 -62 188 0
-1 -62 -188 0
188 185 -123 0
-188 185 123 0
188 -185 123 0
-188 -185 -123 0
185 -189 0
188 -189 0
-185 -188 189 0
62 -190 0
1 -190 0
-62 -1 190 0
-189 187 0
-190 187 0
189 190 -187 0
2 63 -192 0
-2 63 192 0
2 -63 192 0
-2 -63 -192 0
192 187 -124 0
-192 187 124 0
192 -187 124 0
-192 -187 -124 0
187 -193 0
192 -193 0
-187 -192 193 0
63 -194 0
2 -194 0
-63 -2 194 0
-193 191 0
-194 191 0
193 194 -191 0
3 64 -196 0
-3 64 196 0
3 -64 196 0
-3 -64 -196 0
196 191 -125 0
-196 191 125 0
196 -191 125 0
-196 -191 -125 0
191 -197 0
196 -197 0
-191 -196 197 0
64 -198 0
3 -198 0
-64 -3 198 0
-197 195 0
-198 195 0
197 198 -195 0
4 65 -200 0
-4 65 200 0
4 -65 200 0
-4 -65 -200 0
200 195 -126 0
-200 195 126 0
200 -195 126 0
-200 -195 -126 0
195 -201 0
200 -201 0
-195 -200 201 0
65 -202 0
4 -202 0
-65 -4 202 0
-201 199 0
-202 199 0
201 202 -199 0
5 66 -204 0
-5 66 204 0
5 -66 204 0
-5 -66 -204 0
204 199 -127 0
-204 199 127 0
204 -199 127 0
-204 -199 -127 0
199 -205 0
204 -205 0
-199 -204 205 0
66 -206 0
5 -206 0
-66 -5 206 0
-205 203 0
-206 203 0
205 206 -203 0
6 67 -208 0
-6 67 208 0
6 -67 208 0
-6 -67 -208 0
208 203 -128 0
-208 203 128 0
208 -203 128 0
-208 -203 -128 0
203 -209 0
208 -209 0
-203 -208 209 0
67 -210 0
6 -210 0
-67 -6 210 0
-209 207 0
-210 207 0
209 210 -207 0
7 68 -212 0
-7 68 212 0
7 -68 212 0
-7 -68 -212 0
212 207 -129 0
-212 207 129 0
212 -207 129 0
-212 -207 -129 0
207 -213 0
212 -213 0
-207 -212 213 0
68 -214 0
7 -214 0
-68 -7 214 0
-213 211 0
-214 211 0
213 214 -211 0
8 69 -216 0
-8 69 216 0
8 -69 216 0
-8 -69 -216 0
216 211 -130 0
-216 211 130 0
216 -211 130 0
-216 -211 -130 0
211 -217 0
216 -217 0
-211 -216 217 0
69 -218 0
8 -218 0
-69 -8 218 0
-217 215 0
-218 215 0
217 218 -215 0
9 70 -220 0
-9 70 220 0
9 -70 220 0
-9 -70 -220 0
220 215 -131 0
-220 215 131 0
220 -215 131 0
-220 -215 -131 0
215 -221 0
220 -221 0
-215 -220 221 0
70 -222 0
9 -222 0
-70 -9 222 0
-221 219 0
-222 219 0
221 222 -219 0
10 71 -224 0
-10 71 224 0
10 -71 224 0
-10 -71 -224 0
224 219 -132 0
-224 219 132 0
224 -219 132 0
-224 -219 -132 0
219 -225 0
224 -225 0
-219 -224 225 0
71 -226 0
10 -226 0
-71 -10 226 0
-225 223 0
-226 223 0
225 226 -223 0
11 72 -228 0
-11 72 228 0
11 -72 228 0
-11 -72 -228 0
228 223 -133 0
-228 223 133 0
228 -223 133 0
-228 -223 -133 0
223 -229 0
228 -229 0
-223 -228 229 0
72 -230 0
11 -230 0
-72 -11 230 0
-229 227 0
-230 227 0
229 230 -227 0
12 73 -232 0
-12 73 232 0
12 -73 232 0
-12 -73 -232 0
232 227 -134 0
-232 227 134 0
232 -227 134 0
-232 -227 -134 0
227 -233 0
232 -233 0
-227 -232 233 0
73 -234 0
12 -234 0
-73 -12 234 0
-233 231 0
-234 231 0
233 234 -231 0
13 74 -236 0
-13 74 236 0
13 -74 236 0
-13 -74 -236 0
236 231 -135 0
-236 231 135 0
236 -231 135 0
-236 -231 -135 0
231 -237 0
236 -237 0
-231 -236 237 0
74 -238 0
13 -238 0
-74 -13 238 0
-237 235 0
-238 235 0
237 238 -235 0
14 75 -240 0
-14 75 240 0
14 -75 240 0
-14 -75 -240 0
240 235 -136 0
-240 235 136 0
240 -235 136 0
-240 -235 -136 0
235 -241 0
240 -241 0
-235 -240 241 0
75 -242 0
14 -242 0
-75 -14 242 0
-241 239 0
-242 239 0
241 242 -239 0
15 76 -244 0
-15 76 244 0
15 -76 244 0
-15 -76 -244 0
244 239 -137 0
-244 239 137 0
244 -239 137 0
-244 -239 -137 0
239 -245 0
244 -245 0
-239 -244 245 0
76 -246 0
15 -246 0
-76 -15 246 0
-245 243 0
-246 243 0
245 246 -243 0
16 77 -248 0
-16 77 248 0
16 -77 248 0
-16 -77 -248 0
248 243 -138 0
-248 243 138 0
248 -243 138 0
-248 -243 -138 0
243 -249 0
248 -249 0
-243 -248 249 0
77 -250 0
16 -250 0
-77 -16 250 0
-249 247 0
-250 247 0
249 250 -247 0
17 78 -252 0
-17 78 252 0
17 -78 252 0
-17 -78 -252 0
252 247 -139 0
-252 247 139 0
252 -247 139 0
-252 -247 -139 0
247 -253 0
252 -253 0
-247 -252 253 0
78 -254 0
17 -254 0
-78 -17 254 0
-253 251 0
-254 251 0
253 254 -251 0
18 79 -256 0
-18 79 256 0
18 -79 256 0
-18 -79 -256 0
256 251 -140 0
-256 251 140 0
256 -251 140 0
-256 -251 -140 0
251 -257 0
256 -257 0
-251 -256 257 0
79 -258 0
18 -258 0
-79 -18 258 0
-257 255 0
-258 255 0
257 258 -255 0
19 80 -260 0
-19 80 260 0
19 -80 260 0
-19 -80 -260 0
260 255 -141 0
-260 255 141 0
260 -255 141 0
-260 -255 -141 0
255 -261 0
260 -261 0
-255 -260 261 0
80 -262 0
19 -262 0
-80 -19 262 0
-261 259 0
-262 259 0
261 262 -259 0
20 81 -264 0
-20 81 264 0
20 -81 264 0
-20 -81 -264 0
264 259 -142 0
-264 259 142 0
264 -259 142 0
-264 -259 -142 0
259 -265 0
264 -265 0
-259 -264 265 0
81 -266 0
20 -266 0
-81 -20 266 0
-265 263 0
-266 263 0
265 266 -263 0
21 82 -268 0
-21 82 268 0
21 -82 268 0
-21 -82 -268 0
268 263 -143 0
-268 263 143 0
268 -263 143 0
-268 -263 -143 0
263 -269 0
268 -269 0
-263 -268 269 0
82 -270 0
21 -270 0
-82 -21 270 0
-269 267 0
-270 267 0
269 270 -267 0
22 83 -272 0
-22 83 272 0
22 -83 272 0
-22 -83 -272 0
272 267 -144 0
-272 267 144 0
272 -267 144 0
-272 -267 -144 0
267 -273 0
272 -273 0
-267 -272 273 0
83 -274 0
22 -274 0
-83 -22 274 0
-273 271 0
-274 271 0
273 274 -271 0
23 84 -276 0
-23 84 276 0
23 -84 276 0
-23 -84 -276 0
276 271 -145 0
-276 271 145 0
276 -271 145 0
-276 -271 -145 0
271 -277 0
276 -277 0
-271 -276 277 0
84 -278 0
23 -278 0
-84 -23 278 0
-277 275 0
-278 275 0
277 278 -275 0
24 85 -280 0
-24 85 280 0
24 -85 280 0
-24 -85 -280 0
280 275 -146 0
-280 275 146 0
280 -275 146 0
-280 -275 -146 0
275 -281 0
280 -281 0
-275 -280 281 0
85 -282 0
24 -282 0
-85 -24 282 0
-281 279 0
-282 279 0
281 282 -279 0
25 86 -284 0
-25 86 284 0
25 -86 284 0
-25 -86 -284 0
284 279 -147 0
-284 279 147 0
284 -279 147 0
-284 -279 -147 0
279 -285 0
284 -285 0
-279 -284 285 0
86 -286 0
25 -286 0
-86 -25 286 0
-285 283 0
-286 283 0
285 286 -283 0
26 87 -288 0
-26 87 288 0
26 -87 288 0
-26 -87 -288 0
288 283 -148 0
-288 283 148 0
288 -283 148 0
-288 -283 -148 0
283 -289 0
288 -289 0
-283 -288 289 0
87 -290 0
26 -290 0
-87 -26 290 0
-289 287 0
-290 287 0
289 290 -287 0
27 88 -292 0
-27 88 292 0
27 -88 292 0
-27 -88 -292 0
292 287 -149 0
-292 287 149 0
292 -287 149 0
-292 -287 -149 0
287 -293 0
292 -293 0
-287 -292 293 0
88 -294 0
27 -294 0
-88 -27 294 0
-293 291 0
-294 291 0
293 294 -291 0
28 89 -296 0
-28 89 296 0
28 -89 296 0
-28 -89 -296 0
296 291 -150 0
-296 291 150 0
296 -291 150 0
-296 -291 -150 0
291 -297 0
296 -297 0
-291 -296 297 0
89 -298 0
28 -298 0
-89 -28 298 0
-297 295 0
-298 295 0
297 298 -295 0
29 90 -300 0
-29 90 300 0
29 -90 300 0
-29 -90 -300 0
300 295 -151 0
-300 295 151 0
300 -295 151 0
-300 -295 -151 0
295 -301 0
300 -301 0
-295 -300 301 0
90 -302 0
29 -302 0
-90 -29 302 0
-301 299 0
-302 299 0
301 302 -299 0
30 91 -304 0
-30 91 304 0
30 -91 304 0
-30 -91 -304 0
304 299 -152 0
-304 299 152 0
304 -299 152 0
-304 -299 -152 0
299 -305 0
304 -305 0
-299 -304 305 0
91 -306 0
30 -306 0
-91 -30 306 0
-305 303 0
-306 303 0
305 306 -303 0
31 92 -308 0
-31 92 308 0
31 -92 308 0
-31 -92 -308 0
308 303 -153 0
-308 303 153 0
308 -303 153 0
-308 -303 -153 0
303 -309 0
308 -309 0
-303 -308 309 0
92 -310 0
31 -310 0
-92 -31 310 0
-309 307 0
-310 307 0
309 310 -307 0
32 93 -312 0
-32 93 312 0
32 -93 312 0
-32 -93 -312 0
312 307 -154 0
-312 307 154 0
312 -307 154 0
-312 -307 -154 0
307 -313 0
312 -313 0
-307 -312 313 0
93 -314 0
32 -314 0
-93 -32 314 0
-313 311 0
-314 311 0
313 314 -311 0
33 94 -316 0
-33 94 316 0
33 -94 316 0
-33 -94 -316 0
316 311 -155 0
-316 311 155 0
316 -311 155 0
-316 -311 -155 0
311 -317 0
316 -317 0
-311 -316 317 0
94 -318 0
33 -318 0
-94 -33 318 0
-317 315 0
-318 315 0
317 318 -315 0
34 95 -320 0
-34 95 320 0
34 -95 320 0
-34 -95 -320 0
320 315 -156 0
-320 315 156 0
320 -315 156 0
-320 -315 -156 0
315 -321 0
320 -321 0
-315 -320 321 0
95 -322 0
34 -322 0
-95 -34 322 0
-321 319 0
-322 319 0
321 322 -319 0
35 96 -324 0
-35 96 324 0
35 -96 324 0
-35 -96 -324 0
324 319 -157 0
-324 319 157 0
324 -319 157 0
-324 -319 -157 0
319 -325 0
324 -325 0
-319 -324 325 0
96 -326 0
35 -326 0
-96 -35 326 0
-325 323 0
-326 323 0
325 326 -323 0
36 97 -328 0
-36 97 328 0
36 -97 328 0
-36 -97 -328 0
328 323 -158 0
-328 323 158 0
328 -323 158 0
-328 -323 -158 0
323 -329 0
328 -329 0
-323 -328 329 0
97 -330 0
36 -330 0
-97 -36 330 0
-329 327 0
-330 327 0
329 330 -327 0
37 98 -332 0
-37 98 332 0
37 -98 332 0
-37 -98 -332 0
332 327 -159 0
-332 327 159 0
332 -327 159 0
-332 -327 -159 0
327 -333 0
332 -333 0
-327 -332 333 0
98 -334 0
37 -334 0
-98 -37 334 0
-333 331 0
-334 331 0
333 334 -331 0
38 99 -336 0
-38 99 336 0
38 -99 336 0
-38 -99 -336 0
336 331 -160 0
-336 331 160 0
336 -331 160 0
-336 -331 -160 0
331 -337 0
336 -337 0
-331 -336 337 0
99 -338 0
38 -338 0
-99 -38 338 0
-337 335 0
-338 335 0
337 338 -335 0
39 100 -340 0
-39 100 340 0
39 -100 340 0
-39 -100 -340 0
340 335 -161 0
-340 335 161 0
340 -335 161 0
-340 -335 -161 0
335 -341 0
340 -341 0
-335 -340 341 0
100 -342 0
39 -342 0
-100 -39 342 0
-341 339 0
-342 339 0
341 342 -339 0
40 101 -344 0
-40 101 344 0
40 -101 344 0
-40 -101 -344 0
344 339 -162 0
-344 339 162 0
344 -339 162 0
-344 -339 -162 0
339 -345 0
344 -345 0
-339 -344 345 0
101 -346 0
40 -346 0
-101 -40 346 0
-345 343 0
-346 343 0
345 346 -343 0
41 102 -348 0
-41 102 348 0
41 -102 348 0
-41 -102 -348 0
348 343 -163 0
-348 343 163 0
348 -343 163 0
-348 -343 -163 0
343 -349 0
348 -349 0
-343 -348 349 0
102 -350 0
41 -350 0
-102 -41 350 0
-349 347 0
-350 347 0
349 350 -347 0
42 103 -352 0
-42 103 352 0
42 -103 352 0
-42 -103 -352 0
352 347 -164 0
-352 347 164 0
352 -347 164 0
-352 -347 -164 0
347 -353 0
352 -353 0
-347 -352 353 0
103 -354 0
42 -354 0
-103 -42 354 0
-353 351 0
-354 351 0
353 354 -351 0
43 104 -356 0
-43 104 356 0
43 -104 356 0
-43 -104 -356 0
356 351 -165 0
-356 351 165 0
356 -351 165 0
-356 -351 -165 0
351 -357 0
356 -357 0
-351 -356 357 0
104 -358 0
43 -358 0
-104 -43 358 0
-357 355 0
-358 355 0
357 358 -355 0
44 105 -360 0
-44 105 360 0
44 -105 360 0
-44 -105 -360 0
360 355 -166 0
-360 355 166 0
360 -355 166 0
-360 -355 -166 0
355 -361 0
360 -361 0
-355 -360 361 0
105 -362 0
44 -362 0
-105 -44 362 0
-361 359 0
-362 359 0
361 362 -359 0
45 106 -364 0
-45 106 364 0
45 -106 364 0
-45 -106 -364 0
364 359 -167 0
-364 359 167 0
364 -359 167 0
-364 -359 -167 0
359 -365 0
364 -365 0
-359 -364 365 0
106 -366 0
45 -366 0
-106 -45 366 0
-365 363 0
-366 363 0
365 366 -363 0
46 107 -368 0
-46 107 368 0
46 -107 368 0
-46 -107 -368 0
368 363 -168 0
-368 363 168 0
368 -363 168 0
-368 -363 -168 0
363 -369 0
368 -369 0
-363 -368 369 0
107 -370 0
46 -370 0
-107 -46 370 0
-369 367 0
-370 367 0
369 370 -367 0
47 108 -372 0
-47 108 372 0
47 -108 372 0
-47 -108 -372 0
372 367 -169 0
-372 367 169 0
372 -367 169 0
-372 -367 -169 0
367 -373 0
372 -373 0
-367 -372 373 0
108 -374 0
47 -374 0
-108 -47 374 0
-373 371 0
-374 371 0
373 374 -371 0
48 109 -376 0
-48 109 376 0
48 -109 376 0
-48 -109 -376 0
376 371 -170 0
-376 371 170 0
376 -371 170 0
-376 -371 -170 0
371 -377 0
376 -377 0
-371 -376 377 0
109 -378 0
48 -378 0
-109 -48 378 0
-377 375 0
-378 375 0
377 378 -375 0
49 110 -380 0
-49 110 380 0
49 -110 380 0
-49 -110 -380 0
380 375 -171 0
-380 375 171 0
380 -375 171 0
-380 -375 -171 0
375 -381 0
380 -381 0
-375 -380 381 0
110 -382 0
49 -382 0
-110 -49 382 0
-381 379 0
-382 379 0
381 382 -379 0
50 111 -384 0
-50 111 384 0
50 -111 384 0
-50 -111 -384 0
384 379 -172 0
-384 379 172 0
384 -379 172 0
-384 -379 -172 0
379 -385 0
384 -385 0
-379 -384 385 0
111 -386 0
50 -386 0
-111 -50 386 0
-385 383 0
-386 383 0
385 386 -383 0
51 112 -388 0
-51 112 388 0
51 -112 388 0
-51 -112 -388 0
388 383 -173 0
-388 383 173 0
388 -383 173 0
-388 -383 -173 0
383 -389 0
388 -389 0
-383 -388 389 0
112 -390 0
51 -390 0
-112 -51 390 0
-389 387 0
-390 387 0
389 390 -387 0
52 113 -392 0
-52 113 392 0
52 -113 392 0
-52 -113 -392 0
392 387 -174 0
-392 387 174 0
392 -387 174 0
-392 -387 -174 0
387 -393 0
392 -393 0
-387 -392 393 0
113 -394 0
52 -394 0
-113 -52 394 0
-393 391 0
-394 391 0
393 394 -391 0
53 114 -396 0
-53 114 396 0
53 -114 396 0
-53 -114 -396 0
396 391 -175 0
-396 391 175 0
396 -391 175 0
-396 -391 -175 0
391 -397 0
396 -397 0
-391 -396 397 0
114 -398 0
53 -398 0
-114 -53 398 0
-397 395 0
-398 395 0
397 398 -395 0
54 115 -400 0
-54 115 400 0
54 -115 400 0
-54 -115 -400 0
400 395 -176 0
-400 395 176 0
400 -395 176 0
-400 -395 -176 0
395 -401 0
400 -401 0
-395 -400 401 0
115 -402 0
54 -402 0
-115 -54 402 0
-401 399 0
-402 399 0
401 402 -399 0
55 116 -404 0
-55 116 404 0
55 -116 404 0
-55 -116 -404 0
404 399 -177 0
-404 399 177 0
404 -399 177 0
-404 -399 -177 0
399 -405 0
404 -405 0
-399 -404 405 0
116 -406 0
55 -406 0
-116 -55 406 0
-405 403 0
-406 403 0
405 406 -403 0
56 117 -408 0
-56 117 408 0
56 -117 408 0
-56 -117 -408 0
408 403 -178 0
-408 403 178 0
408 -403 178 0
-408 -403 -178 0
403 -409 0
408 -409 0
-403 -408 409 0
117 -410 0
56 -410 0
-117 -56 410 0
-409 407 0
-410 407 0
409 410 -407 0
57 118 -412 0
-57 118 412 0
57 -118 412 0
-57 -118 -412 0
412 407 -179 0
-412 407 179 0
412 -407 179 0
-412 -407 -179 0
407 -413 0
412 -413 0
-407 -412 413 0
118 -414 0
57 -414 0
-118 -57 414 0
-413 411 0
-414 411 0
413 414 -411 0
58 119 -416 0
-58 119 416 0
58 -119 416 0
-58 -119 -416 0
416 411 -180 0
-416 411 180 0
416 -411 180 0
-416 -411 -180 0
411 -417 0
416 -417 0
-411 -416 417 0
119 -418 0
58 -418 0
-119 -58 418 0
-417 415 0
-418 415 0
417 418 -415 0
59 120 -420 0
-59 120 420 0
59 -120 420 0
-59 -120 -420 0
420 415 -181 0
-420 415 181 0
420 -415 181 0
-420 -415 -181 0
415 -421 0
420 -421 0
-415 -420 421 0
120 -422 0
59 -422 0
-120 -59 422 0
-421 419 0
-422 419 0
421 422 -419 0
60 121 -424 0
-60 121 424 0
60 -121 424 0
-60 -121 -424 0
424 419 -182 0
-424 419 182 0
424 -419 182 0
-424 -419 -182 0
419 -425 0
424 -425 0
-419 -424 425 0
121 -426 0
60 -426 0
-121 -60 426 0
-425 423 0
-426 423 0
425 426 -423 0
61 122 -427 0
-61 122 427 0
61 -122 427 0
-61 -122 -427 0
427 423 -183 0
-427 423 183 0
427 -423 183 0
-427 -423 -183 0
423 -428 0
427 -428 0
-423 -427 428 0
122 -429 0
61 -429 0
-122 -61 429 0
-428 184 0
-429 184 0
428 429 -184 0
